p cnf 115 1193
11 12 13 14 15 0
21 22 23 24 25 0
31 32 33 34 35 0
41 42 43 44 45 0
51 52 53 54 55 0
61 62 63 64 65 0
71 72 73 74 75 0
81 82 83 84 85 0
91 92 93 94 95 0
101 102 103 104 105 0
111 112 113 114 115 0
121 122 123 124 125 0
131 132 133 134 135 0
141 142 143 144 145 0
151 152 153 154 155 0
161 162 163 164 165 0
171 172 173 174 175 0
181 182 183 184 185 0
191 192 193 194 195 0
201 202 203 204 205 0
211 212 213 214 215 0
221 222 223 224 225 0
231 232 233 234 235 0
-11 -12 0
-11 -13 0
-11 -14 0
-11 -15 0
-12 -11 0
-12 -13 0
-12 -14 0
-12 -15 0
-13 -11 0
-13 -12 0
-13 -14 0
-13 -15 0
-14 -11 0
-14 -12 0
-14 -13 0
-14 -15 0
-15 -11 0
-15 -12 0
-15 -13 0
-15 -14 0
-21 -22 0
-21 -23 0
-21 -24 0
-21 -25 0
-22 -21 0
-22 -23 0
-22 -24 0
-22 -25 0
-23 -21 0
-23 -22 0
-23 -24 0
-23 -25 0
-24 -21 0
-24 -22 0
-24 -23 0
-24 -25 0
-25 -21 0
-25 -22 0
-25 -23 0
-25 -24 0
-31 -32 0
-31 -33 0
-31 -34 0
-31 -35 0
-32 -31 0
-32 -33 0
-32 -34 0
-32 -35 0
-33 -31 0
-33 -32 0
-33 -34 0
-33 -35 0
-34 -31 0
-34 -32 0
-34 -33 0
-34 -35 0
-35 -31 0
-35 -32 0
-35 -33 0
-35 -34 0
-41 -42 0
-41 -43 0
-41 -44 0
-41 -45 0
-42 -41 0
-42 -43 0
-42 -44 0
-42 -45 0
-43 -41 0
-43 -42 0
-43 -44 0
-43 -45 0
-44 -41 0
-44 -42 0
-44 -43 0
-44 -45 0
-45 -41 0
-45 -42 0
-45 -43 0
-45 -44 0
-51 -52 0
-51 -53 0
-51 -54 0
-51 -55 0
-52 -51 0
-52 -53 0
-52 -54 0
-52 -55 0
-53 -51 0
-53 -52 0
-53 -54 0
-53 -55 0
-54 -51 0
-54 -52 0
-54 -53 0
-54 -55 0
-55 -51 0
-55 -52 0
-55 -53 0
-55 -54 0
-61 -62 0
-61 -63 0
-61 -64 0
-61 -65 0
-62 -61 0
-62 -63 0
-62 -64 0
-62 -65 0
-63 -61 0
-63 -62 0
-63 -64 0
-63 -65 0
-64 -61 0
-64 -62 0
-64 -63 0
-64 -65 0
-65 -61 0
-65 -62 0
-65 -63 0
-65 -64 0
-71 -72 0
-71 -73 0
-71 -74 0
-71 -75 0
-72 -71 0
-72 -73 0
-72 -74 0
-72 -75 0
-73 -71 0
-73 -72 0
-73 -74 0
-73 -75 0
-74 -71 0
-74 -72 0
-74 -73 0
-74 -75 0
-75 -71 0
-75 -72 0
-75 -73 0
-75 -74 0
-81 -82 0
-81 -83 0
-81 -84 0
-81 -85 0
-82 -81 0
-82 -83 0
-82 -84 0
-82 -85 0
-83 -81 0
-83 -82 0
-83 -84 0
-83 -85 0
-84 -81 0
-84 -82 0
-84 -83 0
-84 -85 0
-85 -81 0
-85 -82 0
-85 -83 0
-85 -84 0
-91 -92 0
-91 -93 0
-91 -94 0
-91 -95 0
-92 -91 0
-92 -93 0
-92 -94 0
-92 -95 0
-93 -91 0
-93 -92 0
-93 -94 0
-93 -95 0
-94 -91 0
-94 -92 0
-94 -93 0
-94 -95 0
-95 -91 0
-95 -92 0
-95 -93 0
-95 -94 0
-101 -102 0
-101 -103 0
-101 -104 0
-101 -105 0
-102 -101 0
-102 -103 0
-102 -104 0
-102 -105 0
-103 -101 0
-103 -102 0
-103 -104 0
-103 -105 0
-104 -101 0
-104 -102 0
-104 -103 0
-104 -105 0
-105 -101 0
-105 -102 0
-105 -103 0
-105 -104 0
-111 -112 0
-111 -113 0
-111 -114 0
-111 -115 0
-112 -111 0
-112 -113 0
-112 -114 0
-112 -115 0
-113 -111 0
-113 -112 0
-113 -114 0
-113 -115 0
-114 -111 0
-114 -112 0
-114 -113 0
-114 -115 0
-115 -111 0
-115 -112 0
-115 -113 0
-115 -114 0
-121 -122 0
-121 -123 0
-121 -124 0
-121 -125 0
-122 -121 0
-122 -123 0
-122 -124 0
-122 -125 0
-123 -121 0
-123 -122 0
-123 -124 0
-123 -125 0
-124 -121 0
-124 -122 0
-124 -123 0
-124 -125 0
-125 -121 0
-125 -122 0
-125 -123 0
-125 -124 0
-131 -132 0
-131 -133 0
-131 -134 0
-131 -135 0
-132 -131 0
-132 -133 0
-132 -134 0
-132 -135 0
-133 -131 0
-133 -132 0
-133 -134 0
-133 -135 0
-134 -131 0
-134 -132 0
-134 -133 0
-134 -135 0
-135 -131 0
-135 -132 0
-135 -133 0
-135 -134 0
-141 -142 0
-141 -143 0
-141 -144 0
-141 -145 0
-142 -141 0
-142 -143 0
-142 -144 0
-142 -145 0
-143 -141 0
-143 -142 0
-143 -144 0
-143 -145 0
-144 -141 0
-144 -142 0
-144 -143 0
-144 -145 0
-145 -141 0
-145 -142 0
-145 -143 0
-145 -144 0
-151 -152 0
-151 -153 0
-151 -154 0
-151 -155 0
-152 -151 0
-152 -153 0
-152 -154 0
-152 -155 0
-153 -151 0
-153 -152 0
-153 -154 0
-153 -155 0
-154 -151 0
-154 -152 0
-154 -153 0
-154 -155 0
-155 -151 0
-155 -152 0
-155 -153 0
-155 -154 0
-161 -162 0
-161 -163 0
-161 -164 0
-161 -165 0
-162 -161 0
-162 -163 0
-162 -164 0
-162 -165 0
-163 -161 0
-163 -162 0
-163 -164 0
-163 -165 0
-164 -161 0
-164 -162 0
-164 -163 0
-164 -165 0
-165 -161 0
-165 -162 0
-165 -163 0
-165 -164 0
-171 -172 0
-171 -173 0
-171 -174 0
-171 -175 0
-172 -171 0
-172 -173 0
-172 -174 0
-172 -175 0
-173 -171 0
-173 -172 0
-173 -174 0
-173 -175 0
-174 -171 0
-174 -172 0
-174 -173 0
-174 -175 0
-175 -171 0
-175 -172 0
-175 -173 0
-175 -174 0
-181 -182 0
-181 -183 0
-181 -184 0
-181 -185 0
-182 -181 0
-182 -183 0
-182 -184 0
-182 -185 0
-183 -181 0
-183 -182 0
-183 -184 0
-183 -185 0
-184 -181 0
-184 -182 0
-184 -183 0
-184 -185 0
-185 -181 0
-185 -182 0
-185 -183 0
-185 -184 0
-191 -192 0
-191 -193 0
-191 -194 0
-191 -195 0
-192 -191 0
-192 -193 0
-192 -194 0
-192 -195 0
-193 -191 0
-193 -192 0
-193 -194 0
-193 -195 0
-194 -191 0
-194 -192 0
-194 -193 0
-194 -195 0
-195 -191 0
-195 -192 0
-195 -193 0
-195 -194 0
-201 -202 0
-201 -203 0
-201 -204 0
-201 -205 0
-202 -201 0
-202 -203 0
-202 -204 0
-202 -205 0
-203 -201 0
-203 -202 0
-203 -204 0
-203 -205 0
-204 -201 0
-204 -202 0
-204 -203 0
-204 -205 0
-205 -201 0
-205 -202 0
-205 -203 0
-205 -204 0
-211 -212 0
-211 -213 0
-211 -214 0
-211 -215 0
-212 -211 0
-212 -213 0
-212 -214 0
-212 -215 0
-213 -211 0
-213 -212 0
-213 -214 0
-213 -215 0
-214 -211 0
-214 -212 0
-214 -213 0
-214 -215 0
-215 -211 0
-215 -212 0
-215 -213 0
-215 -214 0
-221 -222 0
-221 -223 0
-221 -224 0
-221 -225 0
-222 -221 0
-222 -223 0
-222 -224 0
-222 -225 0
-223 -221 0
-223 -222 0
-223 -224 0
-223 -225 0
-224 -221 0
-224 -222 0
-224 -223 0
-224 -225 0
-225 -221 0
-225 -222 0
-225 -223 0
-225 -224 0
-231 -232 0
-231 -233 0
-231 -234 0
-231 -235 0
-232 -231 0
-232 -233 0
-232 -234 0
-232 -235 0
-233 -231 0
-233 -232 0
-233 -234 0
-233 -235 0
-234 -231 0
-234 -232 0
-234 -233 0
-234 -235 0
-235 -231 0
-235 -232 0
-235 -233 0
-235 -234 0
-11 -21 0
-12 -22 0
-13 -23 0
-14 -24 0
-15 -25 0
-11 -41 0
-12 -42 0
-13 -43 0
-14 -44 0
-15 -45 0
-11 -71 0
-12 -72 0
-13 -73 0
-14 -74 0
-15 -75 0
-11 -91 0
-12 -92 0
-13 -93 0
-14 -94 0
-15 -95 0
-11 -131 0
-12 -132 0
-13 -133 0
-14 -134 0
-15 -135 0
-11 -151 0
-12 -152 0
-13 -153 0
-14 -154 0
-15 -155 0
-11 -181 0
-12 -182 0
-13 -183 0
-14 -184 0
-15 -185 0
-11 -201 0
-12 -202 0
-13 -203 0
-14 -204 0
-15 -205 0
-21 -11 0
-22 -12 0
-23 -13 0
-24 -14 0
-25 -15 0
-21 -31 0
-22 -32 0
-23 -33 0
-24 -34 0
-25 -35 0
-21 -61 0
-22 -62 0
-23 -63 0
-24 -64 0
-25 -65 0
-21 -81 0
-22 -82 0
-23 -83 0
-24 -84 0
-25 -85 0
-21 -121 0
-22 -122 0
-23 -123 0
-24 -124 0
-25 -125 0
-21 -141 0
-22 -142 0
-23 -143 0
-24 -144 0
-25 -145 0
-21 -171 0
-22 -172 0
-23 -173 0
-24 -174 0
-25 -175 0
-21 -191 0
-22 -192 0
-23 -193 0
-24 -194 0
-25 -195 0
-31 -21 0
-32 -22 0
-33 -23 0
-34 -24 0
-35 -25 0
-31 -51 0
-32 -52 0
-33 -53 0
-34 -54 0
-35 -55 0
-31 -71 0
-32 -72 0
-33 -73 0
-34 -74 0
-35 -75 0
-31 -101 0
-32 -102 0
-33 -103 0
-34 -104 0
-35 -105 0
-31 -131 0
-32 -132 0
-33 -133 0
-34 -134 0
-35 -135 0
-31 -161 0
-32 -162 0
-33 -163 0
-34 -164 0
-35 -165 0
-31 -181 0
-32 -182 0
-33 -183 0
-34 -184 0
-35 -185 0
-31 -211 0
-32 -212 0
-33 -213 0
-34 -214 0
-35 -215 0
-41 -11 0
-42 -12 0
-43 -13 0
-44 -14 0
-45 -15 0
-41 -51 0
-42 -52 0
-43 -53 0
-44 -54 0
-45 -55 0
-41 -61 0
-42 -62 0
-43 -63 0
-44 -64 0
-45 -65 0
-41 -101 0
-42 -102 0
-43 -103 0
-44 -104 0
-45 -105 0
-41 -121 0
-42 -122 0
-43 -123 0
-44 -124 0
-45 -125 0
-41 -161 0
-42 -162 0
-43 -163 0
-44 -164 0
-45 -165 0
-41 -171 0
-42 -172 0
-43 -173 0
-44 -174 0
-45 -175 0
-41 -211 0
-42 -212 0
-43 -213 0
-44 -214 0
-45 -215 0
-51 -31 0
-52 -32 0
-53 -33 0
-54 -34 0
-55 -35 0
-51 -41 0
-52 -42 0
-53 -43 0
-54 -44 0
-55 -45 0
-51 -81 0
-52 -82 0
-53 -83 0
-54 -84 0
-55 -85 0
-51 -91 0
-52 -92 0
-53 -93 0
-54 -94 0
-55 -95 0
-51 -141 0
-52 -142 0
-53 -143 0
-54 -144 0
-55 -145 0
-51 -151 0
-52 -152 0
-53 -153 0
-54 -154 0
-55 -155 0
-51 -191 0
-52 -192 0
-53 -193 0
-54 -194 0
-55 -195 0
-51 -201 0
-52 -202 0
-53 -203 0
-54 -204 0
-55 -205 0
-61 -21 0
-62 -22 0
-63 -23 0
-64 -24 0
-65 -25 0
-61 -41 0
-62 -42 0
-63 -43 0
-64 -44 0
-65 -45 0
-61 -111 0
-62 -112 0
-63 -113 0
-64 -114 0
-65 -115 0
-61 -131 0
-62 -132 0
-63 -133 0
-64 -134 0
-65 -135 0
-61 -151 0
-62 -152 0
-63 -153 0
-64 -154 0
-65 -155 0
-61 -221 0
-62 -222 0
-63 -223 0
-64 -224 0
-65 -225 0
-71 -11 0
-72 -12 0
-73 -13 0
-74 -14 0
-75 -15 0
-71 -31 0
-72 -32 0
-73 -33 0
-74 -34 0
-75 -35 0
-71 -111 0
-72 -112 0
-73 -113 0
-74 -114 0
-75 -115 0
-71 -121 0
-72 -122 0
-73 -123 0
-74 -124 0
-75 -125 0
-71 -141 0
-72 -142 0
-73 -143 0
-74 -144 0
-75 -145 0
-71 -221 0
-72 -222 0
-73 -223 0
-74 -224 0
-75 -225 0
-81 -21 0
-82 -22 0
-83 -23 0
-84 -24 0
-85 -25 0
-81 -51 0
-82 -52 0
-83 -53 0
-84 -54 0
-85 -55 0
-81 -111 0
-82 -112 0
-83 -113 0
-84 -114 0
-85 -115 0
-81 -131 0
-82 -132 0
-83 -133 0
-84 -134 0
-85 -135 0
-81 -161 0
-82 -162 0
-83 -163 0
-84 -164 0
-85 -165 0
-81 -221 0
-82 -222 0
-83 -223 0
-84 -224 0
-85 -225 0
-91 -11 0
-92 -12 0
-93 -13 0
-94 -14 0
-95 -15 0
-91 -51 0
-92 -52 0
-93 -53 0
-94 -54 0
-95 -55 0
-91 -111 0
-92 -112 0
-93 -113 0
-94 -114 0
-95 -115 0
-91 -121 0
-92 -122 0
-93 -123 0
-94 -124 0
-95 -125 0
-91 -161 0
-92 -162 0
-93 -163 0
-94 -164 0
-95 -165 0
-91 -221 0
-92 -222 0
-93 -223 0
-94 -224 0
-95 -225 0
-101 -31 0
-102 -32 0
-103 -33 0
-104 -34 0
-105 -35 0
-101 -41 0
-102 -42 0
-103 -43 0
-104 -44 0
-105 -45 0
-101 -111 0
-102 -112 0
-103 -113 0
-104 -114 0
-105 -115 0
-101 -141 0
-102 -142 0
-103 -143 0
-104 -144 0
-105 -145 0
-101 -151 0
-102 -152 0
-103 -153 0
-104 -154 0
-105 -155 0
-101 -221 0
-102 -222 0
-103 -223 0
-104 -224 0
-105 -225 0
-111 -61 0
-112 -62 0
-113 -63 0
-114 -64 0
-115 -65 0
-111 -71 0
-112 -72 0
-113 -73 0
-114 -74 0
-115 -75 0
-111 -81 0
-112 -82 0
-113 -83 0
-114 -84 0
-115 -85 0
-111 -91 0
-112 -92 0
-113 -93 0
-114 -94 0
-115 -95 0
-111 -101 0
-112 -102 0
-113 -103 0
-114 -104 0
-115 -105 0
-111 -171 0
-112 -172 0
-113 -173 0
-114 -174 0
-115 -175 0
-111 -181 0
-112 -182 0
-113 -183 0
-114 -184 0
-115 -185 0
-111 -191 0
-112 -192 0
-113 -193 0
-114 -194 0
-115 -195 0
-111 -201 0
-112 -202 0
-113 -203 0
-114 -204 0
-115 -205 0
-111 -211 0
-112 -212 0
-113 -213 0
-114 -214 0
-115 -215 0
-121 -21 0
-122 -22 0
-123 -23 0
-124 -24 0
-125 -25 0
-121 -41 0
-122 -42 0
-123 -43 0
-124 -44 0
-125 -45 0
-121 -71 0
-122 -72 0
-123 -73 0
-124 -74 0
-125 -75 0
-121 -91 0
-122 -92 0
-123 -93 0
-124 -94 0
-125 -95 0
-121 -231 0
-122 -232 0
-123 -233 0
-124 -234 0
-125 -235 0
-131 -11 0
-132 -12 0
-133 -13 0
-134 -14 0
-135 -15 0
-131 -31 0
-132 -32 0
-133 -33 0
-134 -34 0
-135 -35 0
-131 -61 0
-132 -62 0
-133 -63 0
-134 -64 0
-135 -65 0
-131 -81 0
-132 -82 0
-133 -83 0
-134 -84 0
-135 -85 0
-131 -231 0
-132 -232 0
-133 -233 0
-134 -234 0
-135 -235 0
-141 -21 0
-142 -22 0
-143 -23 0
-144 -24 0
-145 -25 0
-141 -51 0
-142 -52 0
-143 -53 0
-144 -54 0
-145 -55 0
-141 -71 0
-142 -72 0
-143 -73 0
-144 -74 0
-145 -75 0
-141 -101 0
-142 -102 0
-143 -103 0
-144 -104 0
-145 -105 0
-141 -231 0
-142 -232 0
-143 -233 0
-144 -234 0
-145 -235 0
-151 -11 0
-152 -12 0
-153 -13 0
-154 -14 0
-155 -15 0
-151 -51 0
-152 -52 0
-153 -53 0
-154 -54 0
-155 -55 0
-151 -61 0
-152 -62 0
-153 -63 0
-154 -64 0
-155 -65 0
-151 -101 0
-152 -102 0
-153 -103 0
-154 -104 0
-155 -105 0
-151 -231 0
-152 -232 0
-153 -233 0
-154 -234 0
-155 -235 0
-161 -31 0
-162 -32 0
-163 -33 0
-164 -34 0
-165 -35 0
-161 -41 0
-162 -42 0
-163 -43 0
-164 -44 0
-165 -45 0
-161 -81 0
-162 -82 0
-163 -83 0
-164 -84 0
-165 -85 0
-161 -91 0
-162 -92 0
-163 -93 0
-164 -94 0
-165 -95 0
-161 -231 0
-162 -232 0
-163 -233 0
-164 -234 0
-165 -235 0
-171 -21 0
-172 -22 0
-173 -23 0
-174 -24 0
-175 -25 0
-171 -41 0
-172 -42 0
-173 -43 0
-174 -44 0
-175 -45 0
-171 -111 0
-172 -112 0
-173 -113 0
-174 -114 0
-175 -115 0
-171 -231 0
-172 -232 0
-173 -233 0
-174 -234 0
-175 -235 0
-181 -11 0
-182 -12 0
-183 -13 0
-184 -14 0
-185 -15 0
-181 -31 0
-182 -32 0
-183 -33 0
-184 -34 0
-185 -35 0
-181 -111 0
-182 -112 0
-183 -113 0
-184 -114 0
-185 -115 0
-181 -231 0
-182 -232 0
-183 -233 0
-184 -234 0
-185 -235 0
-191 -21 0
-192 -22 0
-193 -23 0
-194 -24 0
-195 -25 0
-191 -51 0
-192 -52 0
-193 -53 0
-194 -54 0
-195 -55 0
-191 -111 0
-192 -112 0
-193 -113 0
-194 -114 0
-195 -115 0
-191 -231 0
-192 -232 0
-193 -233 0
-194 -234 0
-195 -235 0
-201 -11 0
-202 -12 0
-203 -13 0
-204 -14 0
-205 -15 0
-201 -51 0
-202 -52 0
-203 -53 0
-204 -54 0
-205 -55 0
-201 -111 0
-202 -112 0
-203 -113 0
-204 -114 0
-205 -115 0
-201 -231 0
-202 -232 0
-203 -233 0
-204 -234 0
-205 -235 0
-211 -31 0
-212 -32 0
-213 -33 0
-214 -34 0
-215 -35 0
-211 -41 0
-212 -42 0
-213 -43 0
-214 -44 0
-215 -45 0
-211 -111 0
-212 -112 0
-213 -113 0
-214 -114 0
-215 -115 0
-211 -231 0
-212 -232 0
-213 -233 0
-214 -234 0
-215 -235 0
-221 -61 0
-222 -62 0
-223 -63 0
-224 -64 0
-225 -65 0
-221 -71 0
-222 -72 0
-223 -73 0
-224 -74 0
-225 -75 0
-221 -81 0
-222 -82 0
-223 -83 0
-224 -84 0
-225 -85 0
-221 -91 0
-222 -92 0
-223 -93 0
-224 -94 0
-225 -95 0
-221 -101 0
-222 -102 0
-223 -103 0
-224 -104 0
-225 -105 0
-221 -231 0
-222 -232 0
-223 -233 0
-224 -234 0
-225 -235 0
-231 -121 0
-232 -122 0
-233 -123 0
-234 -124 0
-235 -125 0
-231 -131 0
-232 -132 0
-233 -133 0
-234 -134 0
-235 -135 0
-231 -141 0
-232 -142 0
-233 -143 0
-234 -144 0
-235 -145 0
-231 -151 0
-232 -152 0
-233 -153 0
-234 -154 0
-235 -155 0
-231 -161 0
-232 -162 0
-233 -163 0
-234 -164 0
-235 -165 0
-231 -171 0
-232 -172 0
-233 -173 0
-234 -174 0
-235 -175 0
-231 -181 0
-232 -182 0
-233 -183 0
-234 -184 0
-235 -185 0
-231 -191 0
-232 -192 0
-233 -193 0
-234 -194 0
-235 -195 0
-231 -201 0
-232 -202 0
-233 -203 0
-234 -204 0
-235 -205 0
-231 -211 0
-232 -212 0
-233 -213 0
-234 -214 0
-235 -215 0
-231 -221 0
-232 -222 0
-233 -223 0
-234 -224 0
-235 -225 0
